Solving original (integer) problem with strategy gdp.binary_multiplication...
--- Job model.gms Start 02/19/26 10:03:53 52.2.0 d8e408be LEX-LEG x86 64bit/Linux
--- Applying:
    /package/gams/52.2/gmsprmun.txt
--- GAMS Parameters defined
    Input /local/scratch/a/sgusev/repos/k_means/data/gams_scip_gdp.binary_multiplication/no_mode/2026-02-19_10-03-53/original/model.gms
    Output /local/scratch/a/sgusev/repos/k_means/data/gams_scip_gdp.binary_multiplication/no_mode/2026-02-19_10-03-53/original/output.lst
    ScrDir /local/scratch/a/sgusev/repos/k_means/data/gams_scip_gdp.binary_multiplication/no_mode/2026-02-19_10-03-53/original/225a/
    SysDir /package/gams/52.2/
    CurDir /local/scratch/a/sgusev/repos/k_means/data/gams_scip_gdp.binary_multiplication/no_mode/2026-02-19_10-03-53/original/
    LogOption 3
    AppendLog 1
Licensee: David Bernal / SECQUOIA Research Group         G251008+0003Ac-GEN
          Purdue University, Davidson School of Chemical EngineeringDCE4838
          225a/gamslice.dat
          5a82958a-fbca-4a23
          node:66820903 mem:995 cores:48 ipport:46233 v:2                  
          Evaluation license: Not for commercial or production use
          The time-limited license stops working on : Jun 30, 2027
System information: 48 physical cores and 995 Gb physical memory detected
GAMS 52.2.0   Copyright (C) 1987-2025 GAMS Development. All rights reserved
--- Starting compilation
--- model.gms(244) 2 Mb
--- $echo File /local/scratch/a/sgusev/repos/k_means/data/gams_scip_gdp.binary_multiplication/no_mode/2026-02-19_10-03-53/original/scip.opt
--- model.gms(436) 2 Mb
--- Starting execution: elapsed 0:00:00.005
--- model.gms(254) 3 Mb
--- Generating MINLP model GAMS_MODEL
--- model.gms(258) 5 Mb
---   59 rows  66 columns  271 non-zeroes
---   630 nl-code  210 nl-non-zeroes
---   42 discrete-columns
--- Range statistics (absolute non-zero finite values)
--- RHS       [min, max] : [ 1.000E+00, 1.000E+00] - Zero values observed as well
--- Bound     [min, max] : [ 1.000E+00, 8.400E+01] - Zero values observed as well
--- Matrix    [min, max] : [ 2.271E-01, 2.688E+00] - Zero values observed as well
--- model.gms(258) 3 Mb
--- Executing SCIP (Solvelink=5): elapsed 0:00:00.008

SCIP             52.2.0 d8e408be Dec 8, 2025           LEG x86 64bit/Linux    
SCIP version 9.2.4 (a94f778ac8)
Copyright (c) 2002-2025 Zuse Institute Berlin (ZIB)

External libraries: 
  CPLEX 22.1.2.0       Linear Programming Solver developed by IBM (www.cplex.com)
  CppAD 20180000.0     Algorithmic Differentiation of C++ algorithms developed by B. Bell (github.com/coin-or/CppAD)
  PaPILO 2.4.4         parallel presolve for integer and linear optimization (github.com/scipopt/papilo) (built with TBB) [GitHash: 7c826d50]
  Nauty 2.8.9          Computing Graph Automorphism Groups by Brendan D. McKay (users.cecs.anu.edu.au/~bdm/nauty)
  sassy 1.1            Symmetry preprocessor by Markus Anders (github.com/markusa4/sassy)
  Ipopt 3.14.19        Interior Point Optimizer developed by A. Waechter et.al. (github.com/coin-or/Ipopt)

reading option file /local/scratch/a/sgusev/repos/k_means/data/gams_scip_gdp.binary_multiplication/no_mode/2026-02-19_10-03-53/original/scip.opt
non-default parameter settings:
limits/time = 300
limits/gap = 1e-06
limits/absgap = 1e-10
lp/threads = 1
misc/printreason = FALSE
numerics/dualfeastol = 1e-06
parallel/maxnthreads = 1
nlpi/ipopt/linear_solver = "ma27"
nlpi/ipopt/linear_system_scaling = "mc19"

original problem has 65 variables (42 bin, 0 int, 23 cont) and 58 constraints

all 1 solutions given by solution candidate storage are infeasible

feasible solution found by trivial heuristic after 0.0 seconds, objective value 1.176000e+03
presolving:
(round 1, exhaustive) 0 del vars, 0 del conss, 0 add conss, 0 chg bounds, 0 chg sides, 0 chg coeffs, 14 upgd conss, 0 impls, 14 clqs
   (0.0s) probing cycle finished: starting next cycle
   (0.0s) symmetry computation started: requiring (bin +, int +, cont +), (fixed: bin -, int -, cont -)
   (0.0s) no symmetry present (symcode time: 0.00)
presolving (2 rounds: 2 fast, 2 medium, 2 exhaustive):
 0 deleted vars, 0 deleted constraints, 0 added constraints, 0 tightened bounds, 0 added holes, 0 changed sides, 0 changed coefficients
 0 implications, 14 cliques
presolved problem has 65 variables (42 bin, 0 int, 0 impl, 23 cont) and 58 constraints
     14 constraints of type <setppc>
      2 constraints of type <linear>
     42 constraints of type <nonlinear>
Presolving Time: 0.01
transformed 1/1 original solutions to the transformed problem space

 time | node  | left  |LP iter|LP it/n|mem/heur|mdpt |vars |cons |rows |cuts |sepa|confs|strbr|  dualbound   | primalbound  |  gap   | compl. 
  0.1s|     1 |     0 |     0 |     - |  3699k |   0 | 410 |  58 | 244 |   0 |  0 |   0 |   0 | 0.000000e+00 | 1.176000e+03 |    Inf | unknown
L 0.1s|     1 |     0 |     0 |     - |undercov|   0 | 410 |  58 | 244 |   0 |  0 |   0 |   0 | 0.000000e+00 | 1.365032e+01 |    Inf | unknown
  0.1s|     1 |     0 |    44 |     - |  3833k |   0 | 410 |  58 | 268 |  24 |  1 |   0 |   0 | 0.000000e+00 | 1.365032e+01 |    Inf | unknown
  0.1s|     1 |     0 |    44 |     - |  3840k |   0 | 410 |  58 | 268 |  24 |  1 |   0 |   0 | 0.000000e+00 | 1.365032e+01 |    Inf | unknown
  0.1s|     1 |     0 |    80 |     - |  4037k |   0 | 410 |  58 | 296 |  52 |  2 |   0 |   0 | 0.000000e+00 | 1.365032e+01 |    Inf | unknown
  0.1s|     1 |     0 |   168 |     - |  4201k |   0 | 410 |  58 | 322 |  78 |  3 |   0 |   0 | 0.000000e+00 | 1.365032e+01 |    Inf | unknown
  0.1s|     1 |     0 |   226 |     - |  4345k |   0 | 410 |  58 | 349 | 105 |  4 |   0 |   0 | 0.000000e+00 | 1.365032e+01 |    Inf | unknown
  0.1s|     1 |     0 |   292 |     - |  4441k |   0 | 410 |  58 | 370 | 126 |  5 |   0 |   0 | 0.000000e+00 | 1.365032e+01 |    Inf | unknown
  0.1s|     1 |     0 |   354 |     - |  4736k |   0 | 410 |  58 | 390 | 146 |  6 |   0 |   0 | 0.000000e+00 | 1.365032e+01 |    Inf | unknown
  0.1s|     1 |     0 |   392 |     - |  4807k |   0 | 410 |  58 | 407 | 163 |  7 |   0 |   0 | 0.000000e+00 | 1.365032e+01 |    Inf | unknown
  0.2s|     1 |     0 |   439 |     - |  4899k |   0 | 410 |  58 | 421 | 177 |  8 |   0 |   0 | 0.000000e+00 | 1.365032e+01 |    Inf | unknown
  0.2s|     1 |     0 |   473 |     - |  5227k |   0 | 410 |  58 | 435 | 191 |  9 |   0 |   0 | 0.000000e+00 | 1.365032e+01 |    Inf | unknown
  0.2s|     1 |     0 |   512 |     - |  5397k |   0 | 410 |  58 | 450 | 206 | 10 |   0 |   0 | 0.000000e+00 | 1.365032e+01 |    Inf | unknown
  0.2s|     1 |     0 |   556 |     - |  5585k |   0 | 410 |  58 | 463 | 219 | 11 |   0 |   0 | 0.000000e+00 | 1.365032e+01 |    Inf | unknown
  0.2s|     1 |     0 |   590 |     - |  5636k |   0 | 410 |  58 | 322 | 232 | 12 |   0 |   0 | 0.000000e+00 | 1.365032e+01 |    Inf | unknown
 time | node  | left  |LP iter|LP it/n|mem/heur|mdpt |vars |cons |rows |cuts |sepa|confs|strbr|  dualbound   | primalbound  |  gap   | compl. 
  0.3s|     1 |     0 |   608 |     - |  5637k |   0 | 410 |  58 | 335 | 245 | 13 |   0 |   0 | 0.000000e+00 | 1.365032e+01 |    Inf | unknown
  0.3s|     1 |     0 |   627 |     - |  5766k |   0 | 410 |  58 | 354 | 264 | 14 |   0 |   0 | 0.000000e+00 | 1.365032e+01 |    Inf | unknown
L 0.3s|     1 |     0 |  1093 |     - |    alns|   0 | 410 |  58 | 354 | 264 | 14 |   0 |   0 | 0.000000e+00 | 1.232923e+01 |    Inf | unknown
L 0.3s|     1 |     0 |  1093 |     - |    alns|   0 | 410 |  58 | 354 | 264 | 14 |   0 |   0 | 0.000000e+00 | 1.232923e+01 |    Inf | unknown
L 0.3s|     1 |     0 |  1093 |     - |    alns|   0 | 410 |  58 | 354 | 264 | 14 |   0 |   0 | 0.000000e+00 | 1.232923e+01 |    Inf | unknown
o 0.3s|     1 |     0 |  1093 |     - |feaspump|   0 | 410 |  58 | 354 | 264 | 14 |   0 |   0 | 0.000000e+00 | 9.924924e+00 |    Inf | unknown
  0.6s|     1 |     0 |  1093 |     - |  6944k |   0 | 410 |  58 | 354 | 264 | 14 |   0 |   0 | 0.000000e+00 | 9.924924e+00 |    Inf | unknown
  0.6s|     1 |     0 |  1118 |     - |  6978k |   0 | 410 |  58 | 367 | 277 | 15 |   0 |   0 | 0.000000e+00 | 9.924924e+00 |    Inf | unknown
  0.6s|     1 |     0 |  1139 |     - |  6983k |   0 | 410 |  58 | 375 | 285 | 16 |   0 |   0 | 0.000000e+00 | 9.924924e+00 |    Inf | unknown
  0.6s|     1 |     2 |  1139 |     - |  6993k |   0 | 410 |  58 | 375 | 285 | 16 |   0 |  25 | 0.000000e+00 | 9.924924e+00 |    Inf | unknown
r 0.7s|    17 |    18 |  2818 | 134.1 |shifting|  10 | 410 |  58 | 408 | 870 |  4 |   0 |  46 | 0.000000e+00 | 7.024489e+00 |    Inf | unknown
d 0.8s|    20 |    21 |  3608 | 154.5 |nlpdivin|  11 | 410 |  58 | 366 |   0 |  2 |   0 |  48 | 0.000000e+00 | 5.247083e+00 |    Inf | unknown
d 1.5s|    81 |    82 | 13324 | 158.1 |nlpdivin|  11 | 410 |  58 | 418 |   0 |  6 |   0 | 103 | 0.000000e+00 | 5.122988e+00 |    Inf | unknown
  1.6s|   100 |   101 | 17028 | 165.2 |    10M |  11 | 410 |  58 | 434 |5226 |  7 |   0 | 105 | 0.000000e+00 | 5.122988e+00 |    Inf | unknown
  2.2s|   200 |   201 | 31552 | 155.2 |    11M |  16 | 410 |  58 | 463 |9169 |  1 |   1 | 141 | 0.000000e+00 | 5.122988e+00 |    Inf | unknown
 time | node  | left  |LP iter|LP it/n|mem/heur|mdpt |vars |cons |rows |cuts |sepa|confs|strbr|  dualbound   | primalbound  |  gap   | compl. 
  2.9s|   300 |   281 | 41779 | 137.5 |    15M |  22 | 410 |  58 | 509 |  12k|  6 |   1 | 155 | 0.000000e+00 | 5.122988e+00 |    Inf | unknown
  3.5s|   400 |   363 | 52334 | 129.5 |    17M |  22 | 410 |  58 | 483 |  16k| 10 |   2 | 168 | 0.000000e+00 | 5.122988e+00 |    Inf | unknown
  4.0s|   500 |   441 | 62947 | 124.8 |    17M |  24 | 410 |  58 | 449 |  19k|  2 |  10 | 178 | 0.000000e+00 | 5.122988e+00 |    Inf |   8.28%
  4.6s|   600 |   519 | 72375 | 119.7 |    19M |  24 | 410 |  58 | 491 |  23k|  3 |  14 | 191 | 0.000000e+00 | 5.122988e+00 |    Inf |   9.25%
  5.2s|   700 |   597 | 85345 | 121.1 |    21M |  24 | 410 |  58 | 536 |  27k|  8 |  17 | 212 | 0.000000e+00 | 5.122988e+00 |    Inf |  10.04%
  5.9s|   800 |   657 | 93875 | 116.6 |    24M |  25 | 410 |  58 | 409 |  30k| 10 |  20 | 223 | 0.000000e+00 | 5.122988e+00 |    Inf |  11.09%
L 6.1s|   824 |   671 | 96652 | 116.6 |    alns|  25 | 410 |  58 | 532 |  31k|  7 |  20 | 226 | 0.000000e+00 | 5.056112e+00 |    Inf |  11.18%
  6.5s|   900 |   725 |103828 | 114.7 |    24M |  25 | 410 |  58 | 498 |  33k|  7 |  23 | 233 | 0.000000e+00 | 5.056112e+00 |    Inf |  12.06%
  7.0s|  1000 |   785 |114224 | 113.7 |    26M |  25 | 410 |  58 | 565 |  37k|  8 |  26 | 240 | 0.000000e+00 | 5.056112e+00 |    Inf |  13.33%
  7.5s|  1100 |   851 |122697 | 111.0 |    27M |  25 | 410 |  58 | 501 |  39k|  9 |  34 | 243 | 0.000000e+00 | 5.056112e+00 |    Inf |  13.78%
d 7.6s|  1130 |   831 |125870 | 110.9 |linesear|  25 | 410 |  58 | 524 |  40k|  9 |  35 | 248 | 0.000000e+00 | 4.814634e+00 |    Inf |  14.18%
  7.9s|  1200 |   871 |131298 | 108.9 |    28M |  25 | 410 |  58 | 407 |  42k|  2 |  38 | 254 | 0.000000e+00 | 4.814634e+00 |    Inf |  14.65%
  8.3s|  1300 |   923 |138811 | 106.3 |    28M |  26 | 410 |  58 | 463 |  44k|  1 |  40 | 258 | 0.000000e+00 | 4.814634e+00 |    Inf |  14.95%
  8.8s|  1400 |   989 |146966 | 104.6 |    29M |  26 | 410 |  58 | 479 |  47k|  5 |  44 | 260 | 2.043508e-01 | 4.814634e+00 |2256.06%|  16.05%
  9.1s|  1500 |  1035 |152209 | 101.1 |    31M |  26 | 410 |  58 | 553 |  49k|  9 |  46 | 265 | 2.043508e-01 | 4.814634e+00 |2256.06%|  16.85%
 time | node  | left  |LP iter|LP it/n|mem/heur|mdpt |vars |cons |rows |cuts |sepa|confs|strbr|  dualbound   | primalbound  |  gap   | compl. 
L 9.3s|  1530 |  1012 |153402 |  99.9 |    rins|  26 | 410 |  58 | 560 |  50k|  3 |  46 | 266 | 2.043508e-01 | 4.656439e+00 |2178.65%|  17.23%
  9.6s|  1600 |  1040 |158554 |  98.7 |    32M |  26 | 410 |  58 | 540 |  51k|  0 |  47 | 268 | 4.976224e-01 | 4.656439e+00 | 835.74%|  18.09%
 10.0s|  1700 |  1086 |165819 |  97.2 |    33M |  28 | 410 |  58 | 546 |  54k|  6 |  54 | 280 | 6.824867e-01 | 4.656439e+00 | 582.28%|  18.98%
 10.5s|  1800 |  1108 |170802 |  94.6 |    33M |  28 | 410 |  58 | 514 |  56k|  4 |  58 | 293 | 7.431778e-01 | 4.656439e+00 | 526.56%|  19.63%
*10.8s|  1883 |  1139 |176301 |  93.3 |    LP  |  28 | 410 |  58 | 590 |  58k|  7 |  60 | 300 | 7.431802e-01 | 4.656437e+00 | 526.56%|  20.01%
 10.9s|  1900 |  1152 |177851 |  93.3 |    35M |  28 | 410 |  58 | 487 |  58k|  6 |  60 | 301 | 7.431802e-01 | 4.656437e+00 | 526.56%|  20.08%
 11.2s|  2000 |  1198 |183388 |  91.4 |    35M |  28 | 410 |  58 | 494 |  60k|  2 |  64 | 302 | 7.564749e-01 | 4.656437e+00 | 515.54%|  20.65%
 11.6s|  2100 |  1242 |189515 |  90.0 |    36M |  28 | 410 |  58 | 458 |  62k| 11 |  69 | 309 | 7.692289e-01 | 4.656437e+00 | 505.34%|  21.37%
*11.7s|  2144 |  1221 |191504 |  89.0 |    LP  |  28 | 410 |  58 | 579 |  63k|  8 |  72 | 312 | 7.692289e-01 | 4.622922e+00 | 500.98%|  21.89%
 11.9s|  2200 |  1231 |194077 |  88.0 |    36M |  28 | 410 |  58 | 444 |  64k|  6 |  73 | 315 | 8.219375e-01 | 4.622922e+00 | 462.44%|  22.26%
 12.2s|  2300 |  1271 |201080 |  87.2 |    37M |  28 | 410 |  58 | 458 |  66k|  2 |  77 | 317 | 1.018750e+00 | 4.622922e+00 | 353.78%|  23.14%
 12.6s|  2400 |  1301 |205456 |  85.4 |    37M |  28 | 410 |  58 | 507 |  67k|  5 |  81 | 322 | 1.018750e+00 | 4.622922e+00 | 353.78%|  23.52%
 12.9s|  2500 |  1325 |210757 |  84.1 |    39M |  28 | 410 |  58 | 498 |  69k|  0 |  86 | 329 | 1.027949e+00 | 4.622922e+00 | 349.72%|  24.13%
 13.2s|  2600 |  1347 |215008 |  82.5 |    40M |  28 | 410 |  58 | 435 |  71k|  6 |  88 | 331 | 1.039516e+00 | 4.622922e+00 | 344.72%|  24.72%
 13.5s|  2700 |  1365 |219981 |  81.3 |    40M |  28 | 410 |  58 | 533 |  72k|  0 |  93 | 338 | 1.052209e+00 | 4.622922e+00 | 339.35%|  25.24%
 time | node  | left  |LP iter|LP it/n|mem/heur|mdpt |vars |cons |rows |cuts |sepa|confs|strbr|  dualbound   | primalbound  |  gap   | compl. 
 13.9s|  2800 |  1389 |226490 |  80.7 |    41M |  28 | 410 |  58 | 504 |  74k|  7 |  97 | 342 | 1.167263e+00 | 4.622922e+00 | 296.05%|  26.27%
 14.1s|  2900 |  1403 |230774 |  79.4 |    41M |  28 | 410 |  58 | 457 |  76k|  0 | 101 | 345 | 1.200184e+00 | 4.622922e+00 | 285.18%|  26.76%
 14.4s|  3000 |  1417 |234965 |  78.1 |    41M |  28 | 410 |  58 | 493 |  77k|  1 | 103 | 345 | 1.200207e+00 | 4.622922e+00 | 285.18%|  27.23%
 14.6s|  3100 |  1437 |239113 |  76.9 |    43M |  28 | 410 |  58 | 540 |  79k|  5 | 110 | 350 | 1.200226e+00 | 4.622922e+00 | 285.17%|  27.60%
 14.9s|  3200 |  1455 |243690 |  76.0 |    43M |  28 | 410 |  58 | 512 |  80k|  0 | 112 | 350 | 1.302083e+00 | 4.622922e+00 | 255.04%|  28.30%
 15.2s|  3300 |  1479 |249128 |  75.3 |    44M |  28 | 410 |  58 | 502 |  82k|  1 | 114 | 353 | 1.332320e+00 | 4.622922e+00 | 246.98%|  28.97%
 15.5s|  3400 |  1497 |254408 |  74.6 |    44M |  28 | 410 |  58 | 481 |  84k|  7 | 119 | 355 | 1.374701e+00 | 4.622922e+00 | 236.29%|  29.95%
 15.8s|  3500 |  1509 |258946 |  73.8 |    44M |  28 | 410 |  58 | 476 |  85k|  2 | 128 | 360 | 1.467612e+00 | 4.622922e+00 | 215.00%|  30.80%
 16.0s|  3600 |  1521 |262784 |  72.8 |    44M |  28 | 410 |  58 | 474 |  86k|  3 | 135 | 367 | 1.486802e+00 | 4.622922e+00 | 210.93%|  31.22%
 16.3s|  3700 |  1537 |267754 |  72.2 |    45M |  28 | 410 |  58 | 583 |  88k|  2 | 142 | 372 | 1.497792e+00 | 4.622922e+00 | 208.65%|  31.92%
 16.6s|  3800 |  1539 |271876 |  71.4 |    45M |  28 | 410 |  58 | 454 |  89k|  4 | 147 | 373 | 1.497861e+00 | 4.622922e+00 | 208.63%|  32.53%
 16.9s|  3900 |  1561 |277129 |  70.9 |    46M |  28 | 410 |  58 | 507 |  91k|  9 | 149 | 380 | 1.528459e+00 | 4.622922e+00 | 202.46%|  33.08%
 17.1s|  4000 |  1557 |280891 |  70.1 |    47M |  28 | 410 |  58 | 448 |  92k|  1 | 150 | 383 | 1.528459e+00 | 4.622922e+00 | 202.46%|  33.68%
 17.4s|  4100 |  1551 |285002 |  69.4 |    47M |  28 | 410 |  58 | 515 |  94k|  4 | 151 | 385 | 1.535821e+00 | 4.622922e+00 | 201.01%|  34.23%
 17.6s|  4200 |  1547 |287684 |  68.4 |    47M |  28 | 410 |  58 | 531 |  95k|  5 | 153 | 386 | 1.535821e+00 | 4.622922e+00 | 201.01%|  34.80%
 time | node  | left  |LP iter|LP it/n|mem/heur|mdpt |vars |cons |rows |cuts |sepa|confs|strbr|  dualbound   | primalbound  |  gap   | compl. 
 17.9s|  4300 |  1549 |292531 |  67.9 |    47M |  28 | 410 |  58 | 527 |  96k|  0 | 160 | 387 | 1.571447e+00 | 4.622922e+00 | 194.18%|  35.41%
 18.2s|  4400 |  1565 |296892 |  67.3 |    48M |  28 | 410 |  58 | 486 |  98k|  1 | 169 | 395 | 1.620898e+00 | 4.622922e+00 | 185.21%|  35.99%
 18.4s|  4500 |  1573 |300813 |  66.7 |    49M |  28 | 410 |  58 | 594 |  99k|  0 | 175 | 398 | 1.620898e+00 | 4.622922e+00 | 185.21%|  36.26%
 18.7s|  4600 |  1575 |304900 |  66.2 |    49M |  28 | 410 |  58 | 451 | 100k|  0 | 177 | 403 | 1.642437e+00 | 4.622922e+00 | 181.47%|  36.88%
 18.9s|  4700 |  1573 |308465 |  65.5 |    49M |  28 | 410 |  58 | 451 | 102k|  0 | 180 | 404 | 1.676462e+00 | 4.622922e+00 | 175.75%|  37.31%
 19.1s|  4800 |  1575 |312468 |  65.0 |    49M |  28 | 410 |  58 | 513 | 103k|  4 | 188 | 406 | 1.717877e+00 | 4.622922e+00 | 169.11%|  37.79%
 19.4s|  4900 |  1569 |315537 |  64.3 |    49M |  28 | 410 |  58 | 456 | 104k|  0 | 192 | 407 | 1.793074e+00 | 4.622922e+00 | 157.82%|  38.44%
 19.6s|  5000 |  1569 |319093 |  63.7 |    49M |  28 | 410 |  58 | 507 | 105k|  0 | 198 | 408 | 1.808830e+00 | 4.622922e+00 | 155.58%|  38.93%
 19.8s|  5100 |  1575 |322690 |  63.2 |    49M |  28 | 410 |  58 | 514 | 106k|  7 | 200 | 413 | 1.836830e+00 | 4.622922e+00 | 151.68%|  39.16%
 20.0s|  5200 |  1575 |325896 |  62.6 |    50M |  28 | 410 |  58 | 471 | 107k|  0 | 204 | 416 | 1.900295e+00 | 4.622922e+00 | 143.27%|  39.41%
 20.3s|  5300 |  1571 |329190 |  62.0 |    50M |  28 | 410 |  58 | 512 | 108k|  0 | 208 | 421 | 1.900309e+00 | 4.622922e+00 | 143.27%|  39.66%
 20.5s|  5400 |  1563 |333566 |  61.7 |    51M |  28 | 410 |  58 | 640 | 110k|  5 | 213 | 425 | 1.909095e+00 | 4.622922e+00 | 142.15%|  40.41%
 20.7s|  5500 |  1561 |337027 |  61.2 |    51M |  28 | 410 |  58 | 491 | 111k|  2 | 222 | 431 | 1.935518e+00 | 4.622922e+00 | 138.85%|  40.76%
 20.9s|  5600 |  1545 |340362 |  60.7 |    51M |  28 | 410 |  58 | 484 | 112k|  2 | 224 | 438 | 1.980808e+00 | 4.622922e+00 | 133.39%|  41.58%
 21.2s|  5700 |  1547 |344271 |  60.3 |    51M |  28 | 410 |  58 | 443 | 113k|  8 | 226 | 442 | 1.996161e+00 | 4.622922e+00 | 131.59%|  42.05%
 time | node  | left  |LP iter|LP it/n|mem/heur|mdpt |vars |cons |rows |cuts |sepa|confs|strbr|  dualbound   | primalbound  |  gap   | compl. 
 21.4s|  5800 |  1539 |347823 |  59.9 |    51M |  28 | 410 |  58 | 520 | 115k|  0 | 228 | 445 | 1.996269e+00 | 4.622922e+00 | 131.58%|  42.45%
 21.7s|  5900 |  1549 |352843 |  59.7 |    52M |  28 | 410 |  58 | 400 | 116k|  0 | 232 | 452 | 2.022178e+00 | 4.622922e+00 | 128.61%|  43.11%
 22.0s|  6000 |  1541 |356144 |  59.3 |    52M |  28 | 410 |  58 | 497 | 118k| 10 | 241 | 458 | 2.033363e+00 | 4.622922e+00 | 127.35%|  43.73%
 22.3s|  6100 |  1555 |360980 |  59.1 |    52M |  28 | 410 |  58 | 548 | 119k|  5 | 247 | 460 | 2.043446e+00 | 4.622922e+00 | 126.23%|  44.04%
 22.5s|  6200 |  1545 |364708 |  58.7 |    52M |  28 | 410 |  58 | 504 | 121k|  1 | 251 | 461 | 2.058528e+00 | 4.622922e+00 | 124.57%|  44.69%
 22.8s|  6300 |  1563 |369367 |  58.5 |    52M |  28 | 410 |  58 | 490 | 122k|  0 | 255 | 463 | 2.082973e+00 | 4.622922e+00 | 121.94%|  44.94%
 23.0s|  6400 |  1561 |372649 |  58.1 |    53M |  28 | 410 |  58 | 489 | 123k|  2 | 264 | 468 | 2.103874e+00 | 4.622922e+00 | 119.73%|  45.57%
 23.2s|  6500 |  1553 |376652 |  57.9 |    53M |  28 | 410 |  58 | 430 | 124k|  0 | 271 | 473 | 2.131779e+00 | 4.622922e+00 | 116.86%|  46.29%
 23.5s|  6600 |  1563 |380256 |  57.5 |    53M |  28 | 410 |  58 | 529 | 126k|  2 | 279 | 473 | 2.137720e+00 | 4.622922e+00 | 116.25%|  46.66%
 23.7s|  6700 |  1557 |383674 |  57.2 |    53M |  28 | 410 |  58 | 411 | 127k|  2 | 284 | 475 | 2.139473e+00 | 4.622922e+00 | 116.08%|  47.15%
 23.9s|  6800 |  1541 |387778 |  56.9 |    53M |  28 | 410 |  58 | 531 | 128k|  9 | 289 | 482 | 2.171868e+00 | 4.622922e+00 | 112.85%|  47.96%
 24.2s|  6900 |  1555 |392978 |  56.9 |    55M |  28 | 410 |  58 | 516 | 130k|  2 | 291 | 486 | 2.179524e+00 | 4.622922e+00 | 112.11%|  48.24%
 24.5s|  7000 |  1547 |396796 |  56.6 |    55M |  28 | 410 |  58 | 548 | 131k|  1 | 295 | 487 | 2.179529e+00 | 4.622922e+00 | 112.11%|  48.60%
 24.7s|  7100 |  1555 |401668 |  56.5 |    55M |  28 | 410 |  58 | 439 | 132k|  2 | 296 | 489 | 2.188037e+00 | 4.622922e+00 | 111.28%|  49.13%
 24.9s|  7200 |  1545 |405230 |  56.2 |    56M |  28 | 410 |  58 | 533 | 134k|  3 | 301 | 498 | 2.188277e+00 | 4.622922e+00 | 111.26%|  49.60%
 time | node  | left  |LP iter|LP it/n|mem/heur|mdpt |vars |cons |rows |cuts |sepa|confs|strbr|  dualbound   | primalbound  |  gap   | compl. 
 25.2s|  7300 |  1531 |409433 |  56.0 |    56M |  28 | 410 |  58 | 440 | 135k|  0 | 306 | 500 | 2.200914e+00 | 4.622922e+00 | 110.05%|  50.24%
 25.4s|  7400 |  1519 |413365 |  55.8 |    56M |  28 | 410 |  58 | 467 | 136k|  0 | 311 | 503 | 2.207574e+00 | 4.622922e+00 | 109.41%|  50.62%
 25.7s|  7500 |  1503 |417419 |  55.6 |    57M |  28 | 410 |  58 | 485 | 137k|  1 | 311 | 503 | 2.228526e+00 | 4.622922e+00 | 107.44%|  51.40%
 25.8s|  7600 |  1483 |420223 |  55.2 |    57M |  28 | 410 |  58 | 440 | 138k|  0 | 316 | 508 | 2.258410e+00 | 4.622922e+00 | 104.70%|  52.05%
 26.0s|  7700 |  1467 |423541 |  54.9 |    57M |  28 | 410 |  58 | 511 | 139k|  0 | 325 | 518 | 2.278847e+00 | 4.622922e+00 | 102.86%|  52.50%
 26.2s|  7800 |  1459 |426462 |  54.6 |    57M |  28 | 410 |  58 | 407 | 140k|  0 | 328 | 520 | 2.292750e+00 | 4.622922e+00 | 101.63%|  53.21%
 26.5s|  7900 |  1447 |430845 |  54.5 |    57M |  28 | 410 |  58 | 550 | 142k|  4 | 330 | 522 | 2.324164e+00 | 4.622922e+00 |  98.91%|  53.83%
 26.7s|  8000 |  1435 |433951 |  54.2 |    57M |  28 | 410 |  58 | 537 | 143k|  2 | 335 | 524 | 2.343381e+00 | 4.622922e+00 |  97.28%|  54.23%
 26.9s|  8100 |  1417 |436415 |  53.8 |    57M |  28 | 410 |  58 | 464 | 143k|  0 | 338 | 528 | 2.365427e+00 | 4.622922e+00 |  95.44%|  54.83%
 27.1s|  8200 |  1401 |439938 |  53.6 |    57M |  28 | 410 |  58 | 507 | 145k|  5 | 342 | 532 | 2.423958e+00 | 4.622922e+00 |  90.72%|  55.52%
 27.3s|  8300 |  1383 |443330 |  53.3 |    57M |  28 | 410 |  58 | 472 | 146k|  2 | 350 | 535 | 2.434829e+00 | 4.622922e+00 |  89.87%|  56.21%
 27.6s|  8400 |  1387 |448331 |  53.3 |    57M |  28 | 410 |  58 | 488 | 147k|  1 | 356 | 537 | 2.448417e+00 | 4.622922e+00 |  88.81%|  56.48%
 27.7s|  8500 |  1367 |451182 |  53.0 |    57M |  28 | 410 |  58 | 516 | 148k|  4 | 360 | 542 | 2.466720e+00 | 4.622922e+00 |  87.41%|  57.09%
 28.0s|  8600 |  1349 |454566 |  52.8 |    57M |  28 | 410 |  58 | 454 | 149k|  1 | 364 | 547 | 2.488687e+00 | 4.622922e+00 |  85.76%|  57.59%
 28.2s|  8700 |  1327 |458233 |  52.6 |    57M |  28 | 410 |  58 | 468 | 150k|  1 | 369 | 549 | 2.535044e+00 | 4.622922e+00 |  82.36%|  58.41%
 time | node  | left  |LP iter|LP it/n|mem/heur|mdpt |vars |cons |rows |cuts |sepa|confs|strbr|  dualbound   | primalbound  |  gap   | compl. 
 28.4s|  8800 |  1319 |461895 |  52.4 |    57M |  28 | 410 |  58 | 609 | 151k|  3 | 371 | 551 | 2.542363e+00 | 4.622922e+00 |  81.84%|  58.86%
 28.7s|  8900 |  1313 |465579 |  52.2 |    57M |  28 | 410 |  58 | 502 | 152k|  2 | 377 | 557 | 2.557915e+00 | 4.622922e+00 |  80.73%|  59.21%
 28.9s|  9000 |  1289 |469039 |  52.0 |    58M |  28 | 410 |  58 | 461 | 153k|  2 | 387 | 561 | 2.609240e+00 | 4.622922e+00 |  77.18%|  60.20%
 29.1s|  9100 |  1269 |471876 |  51.8 |    58M |  28 | 410 |  58 | 476 | 154k|  2 | 391 | 563 | 2.616761e+00 | 4.622922e+00 |  76.67%|  61.23%
 29.3s|  9200 |  1255 |475017 |  51.6 |    58M |  28 | 410 |  58 | 515 | 155k|  1 | 399 | 566 | 2.675932e+00 | 4.622922e+00 |  72.76%|  61.72%
 29.5s|  9300 |  1233 |478192 |  51.4 |    58M |  28 | 410 |  58 | 501 | 156k|  9 | 406 | 567 | 2.680243e+00 | 4.622922e+00 |  72.48%|  62.33%
 29.7s|  9400 |  1215 |481271 |  51.1 |    58M |  28 | 410 |  58 | 460 | 157k|  1 | 407 | 569 | 2.720364e+00 | 4.622922e+00 |  69.94%|  62.82%
 29.9s|  9500 |  1185 |484590 |  50.9 |    58M |  28 | 410 |  58 | 483 | 158k|  1 | 411 | 570 | 2.726351e+00 | 4.622922e+00 |  69.56%|  63.58%
 30.2s|  9600 |  1185 |490349 |  51.0 |    58M |  28 | 410 |  58 | 512 | 160k|  4 | 419 | 573 | 2.759675e+00 | 4.622922e+00 |  67.52%|  64.25%
 30.5s|  9700 |  1169 |494998 |  51.0 |    59M |  28 | 410 |  58 | 478 | 161k|  2 | 423 | 575 | 2.762373e+00 | 4.622922e+00 |  67.35%|  65.61%
 30.7s|  9800 |  1147 |497852 |  50.7 |    59M |  28 | 410 |  58 | 519 | 162k|  0 | 425 | 576 | 2.772706e+00 | 4.622922e+00 |  66.73%|  66.30%
 30.9s|  9900 |  1129 |500302 |  50.5 |    59M |  28 | 410 |  58 | 585 | 163k|  0 | 428 | 583 | 2.786242e+00 | 4.622922e+00 |  65.92%|  66.76%
 31.1s| 10000 |  1111 |504642 |  50.4 |    59M |  28 | 410 |  58 | 491 | 164k|  5 | 429 | 584 | 2.838290e+00 | 4.622922e+00 |  62.88%|  67.49%
 31.3s| 10100 |  1099 |508768 |  50.3 |    59M |  28 | 410 |  58 | 467 | 165k|  6 | 431 | 586 | 2.849453e+00 | 4.622922e+00 |  62.24%|  68.08%
 31.5s| 10200 |  1081 |511974 |  50.1 |    59M |  28 | 410 |  58 | 604 | 166k|  2 | 435 | 589 | 2.881414e+00 | 4.622922e+00 |  60.44%|  68.68%
 time | node  | left  |LP iter|LP it/n|mem/heur|mdpt |vars |cons |rows |cuts |sepa|confs|strbr|  dualbound   | primalbound  |  gap   | compl. 
 31.8s| 10300 |  1065 |515295 |  50.0 |    59M |  28 | 410 |  58 | 448 | 168k|  0 | 441 | 590 | 2.892654e+00 | 4.622922e+00 |  59.82%|  69.18%
 31.9s| 10400 |  1045 |518160 |  49.8 |    59M |  28 | 410 |  58 | 495 | 169k|  0 | 443 | 593 | 2.897404e+00 | 4.622922e+00 |  59.55%|  69.73%
 32.2s| 10500 |  1021 |521826 |  49.6 |    59M |  28 | 410 |  58 | 497 | 170k|  7 | 448 | 596 | 2.925492e+00 | 4.622922e+00 |  58.02%|  70.45%
 32.4s| 10600 |   995 |525143 |  49.5 |    60M |  28 | 410 |  58 | 508 | 171k|  0 | 449 | 596 | 2.951725e+00 | 4.622922e+00 |  56.62%|  71.32%
 32.5s| 10700 |   955 |527607 |  49.3 |    60M |  28 | 410 |  58 | 479 | 172k|  0 | 454 | 599 | 2.970309e+00 | 4.622922e+00 |  55.64%|  72.06%
 32.7s| 10800 |   929 |531235 |  49.1 |    60M |  28 | 410 |  58 | 504 | 173k|  0 | 456 | 601 | 2.987976e+00 | 4.622922e+00 |  54.72%|  72.79%
 33.0s| 10900 |   913 |536078 |  49.1 |    61M |  28 | 410 |  58 | 476 | 174k|  0 | 462 | 605 | 3.011613e+00 | 4.622922e+00 |  53.50%|  73.29%
 33.1s| 11000 |   883 |538809 |  48.9 |    61M |  28 | 410 |  58 | 504 | 175k|  2 | 465 | 605 | 3.025545e+00 | 4.622922e+00 |  52.80%|  74.01%
 33.3s| 11100 |   855 |542105 |  48.8 |    61M |  28 | 410 |  58 | 487 | 176k|  2 | 469 | 608 | 3.047609e+00 | 4.622922e+00 |  51.69%|  74.50%
 33.6s| 11200 |   843 |546116 |  48.7 |    61M |  28 | 410 |  58 | 454 | 177k|  2 | 473 | 611 | 3.055480e+00 | 4.622922e+00 |  51.30%|  75.30%
 33.8s| 11300 |   815 |549254 |  48.6 |    61M |  28 | 410 |  58 | 654 | 178k|  0 | 483 | 614 | 3.099671e+00 | 4.622922e+00 |  49.14%|  76.24%
 34.0s| 11400 |   795 |552537 |  48.4 |    61M |  28 | 410 |  58 | 458 | 179k|  0 | 484 | 617 | 3.100582e+00 | 4.622922e+00 |  49.10%|  77.01%
 34.2s| 11500 |   773 |555914 |  48.3 |    61M |  28 | 410 |  58 | 483 | 180k|  2 | 487 | 618 | 3.107189e+00 | 4.622922e+00 |  48.78%|  77.64%
 34.4s| 11600 |   759 |559431 |  48.2 |    61M |  28 | 410 |  58 | 452 | 181k|  0 | 489 | 623 | 3.115577e+00 | 4.622922e+00 |  48.38%|  78.25%
 34.6s| 11700 |   731 |562195 |  48.0 |    62M |  28 | 410 |  58 | 509 | 182k|  0 | 492 | 625 | 3.163246e+00 | 4.622922e+00 |  46.14%|  79.13%
 time | node  | left  |LP iter|LP it/n|mem/heur|mdpt |vars |cons |rows |cuts |sepa|confs|strbr|  dualbound   | primalbound  |  gap   | compl. 
 34.8s| 11800 |   695 |564942 |  47.8 |    62M |  28 | 410 |  58 | 650 | 183k|  3 | 495 | 627 | 3.196979e+00 | 4.622922e+00 |  44.60%|  80.53%
 35.0s| 11900 |   669 |567956 |  47.7 |    62M |  28 | 410 |  58 | 488 | 184k|  0 | 499 | 629 | 3.233761e+00 | 4.622922e+00 |  42.96%|  81.05%
 35.1s| 12000 |   637 |571032 |  47.5 |    62M |  28 | 410 |  58 | 493 | 185k|  1 | 504 | 633 | 3.256800e+00 | 4.622922e+00 |  41.95%|  81.83%
 35.4s| 12100 |   629 |574728 |  47.4 |    62M |  28 | 410 |  58 | 530 | 186k|  1 | 509 | 635 | 3.256800e+00 | 4.622922e+00 |  41.95%|  82.77%
 35.5s| 12200 |   601 |577124 |  47.3 |    62M |  28 | 410 |  58 | 711 | 187k|  3 | 517 | 642 | 3.266573e+00 | 4.622922e+00 |  41.52%|  83.37%
 35.8s| 12300 |   575 |581886 |  47.3 |    62M |  28 | 410 |  58 | 448 | 188k|  2 | 520 | 644 | 3.286384e+00 | 4.622922e+00 |  40.67%|  84.41%
 36.0s| 12400 |   541 |585372 |  47.2 |    62M |  28 | 410 |  58 | 465 | 189k|  1 | 523 | 651 | 3.318751e+00 | 4.622922e+00 |  39.30%|  84.94%
 36.2s| 12500 |   511 |588702 |  47.0 |    62M |  28 | 410 |  58 | 414 | 190k|  0 | 528 | 655 | 3.367256e+00 | 4.622922e+00 |  37.29%|  85.78%
 36.3s| 12600 |   465 |591326 |  46.9 |    63M |  28 | 410 |  58 | 500 | 190k|  1 | 536 | 657 | 3.381412e+00 | 4.622922e+00 |  36.72%|  86.47%
 36.5s| 12700 |   433 |594429 |  46.8 |    63M |  28 | 410 |  58 | 566 | 191k|  0 | 539 | 659 | 3.425058e+00 | 4.622922e+00 |  34.97%|  87.42%
 36.7s| 12800 |   429 |597812 |  46.7 |    63M |  28 | 410 |  58 | 456 | 192k|  0 | 544 | 666 | 3.433293e+00 | 4.622922e+00 |  34.65%|  87.68%
 36.9s| 12900 |   395 |600687 |  46.5 |    63M |  28 | 410 |  58 | 452 | 193k|  2 | 552 | 672 | 3.469190e+00 | 4.622922e+00 |  33.26%|  88.63%
 37.1s| 13000 |   355 |603696 |  46.4 |    63M |  28 | 410 |  58 | 516 | 194k|  5 | 557 | 672 | 3.517597e+00 | 4.622922e+00 |  31.42%|  89.59%
 37.3s| 13100 |   329 |606332 |  46.2 |    63M |  28 | 410 |  58 | 488 | 195k|  0 | 562 | 677 | 3.540216e+00 | 4.622922e+00 |  30.58%|  90.42%
 37.5s| 13200 |   287 |609335 |  46.1 |    63M |  28 | 410 |  58 | 482 | 195k|  1 | 574 | 682 | 3.647005e+00 | 4.622922e+00 |  26.76%|  91.25%
 time | node  | left  |LP iter|LP it/n|mem/heur|mdpt |vars |cons |rows |cuts |sepa|confs|strbr|  dualbound   | primalbound  |  gap   | compl. 
 37.6s| 13300 |   235 |611758 |  45.9 |    63M |  28 | 410 |  58 | 610 | 196k|  0 | 580 | 689 | 3.697172e+00 | 4.622922e+00 |  25.04%|  92.32%
 37.8s| 13400 |   197 |613557 |  45.7 |    63M |  28 | 410 |  58 | 429 | 197k|  0 | 588 | 695 | 3.744151e+00 | 4.622922e+00 |  23.47%|  93.16%
 38.0s| 13500 |   145 |615938 |  45.6 |    63M |  28 | 410 |  58 | 466 | 197k|  0 | 590 | 697 | 3.838277e+00 | 4.622922e+00 |  20.44%|  94.76%
 38.1s| 13600 |   109 |618707 |  45.4 |    63M |  28 | 410 |  58 | 483 | 198k|  0 | 595 | 699 | 3.965934e+00 | 4.622922e+00 |  16.57%|  95.75%
 38.3s| 13700 |    75 |621150 |  45.3 |    63M |  28 | 410 |  58 | 468 | 199k|  2 | 601 | 702 | 4.054170e+00 | 4.622922e+00 |  14.03%|  97.16%
 38.5s| 13800 |    35 |623572 |  45.1 |    64M |  28 | 410 |  58 | 449 | 199k|  5 | 606 | 708 | 4.092775e+00 | 4.622922e+00 |  12.95%|  98.43%
 38.7s| 13900 |     5 |626818 |  45.0 |    64M |  28 | 410 |  58 | 499 | 200k|  3 | 612 | 713 | 4.323372e+00 | 4.622922e+00 |   6.93%|  99.67%

SCIP Status        : problem is solved [optimal solution found]
Solving Time (sec) : 38.70
Solving Nodes      : 13905
Primal Bound       : +4.62292229939675e+00 (23 solutions)
Dual Bound         : +4.62292229939675e+00
Gap                : 0.00 %


--- Reading solution for model GAMS_MODEL
***
*** Solver did not provide marginals for model GAMS_MODEL
***
--- Executing after solve: elapsed 0:00:38.764
--- model.gms(261) 3 Mb
--- model.gms(436) 5 Mb
--- Putfile results /local/scratch/a/sgusev/repos/k_means/data/gams_scip_gdp.binary_multiplication/no_mode/2026-02-19_10-03-53/original/results.dat
--- Putfile statresults /local/scratch/a/sgusev/repos/k_means/data/gams_scip_gdp.binary_multiplication/no_mode/2026-02-19_10-03-53/original/resultsstat.dat
*** Status: Normal completion
--- Job model.gms Stop 02/19/26 10:04:32 elapsed 0:00:38.764
Original problem solved. Time taken: 39.22224283218384 seconds
Original objective value: 4.62292229939675
